
  22    4
  10   10   10   10

   0   0   0   0   0   8 2 3 4 5 7 10 11 16 
   7  10  10  10  10   2 9 8 
   4  10  10  10  10   2 8 6 
   9  10  10  10  10   2 8 6 
   6  10  10  10  10   2 15 8 
   8  10  10  10  10   5 21 20 15 14 12 
   3  10  10  10  10   5 21 20 15 14 12 
   6  10  10  10  10   5 21 20 18 14 12 
   6  10  10  10  10   4 20 15 14 12 
  10  10  10  10  10   5 21 20 18 14 13 
   6  10  10  10  10   3 20 18 13 
   3  10  10  10  10   2 19 13 
   5  10  10  10  10   1 17 
   6  10  10  10  10   1 19 
   1  10  10  10  10   1 18 
   1  10  10  10  10   1 17 
   3  10  10  10  10   1 22
   6  10  10  10  10   1 22
   1  10  10  10  10   1 22
   4  10  10  10  10   1 22
   4  10  10  10  10   1 22
   0   0   0   0   0   0 
